artifacts/cosmic_witness_prediction_proof.smt2
(set-logic QF_LRA)
(declare-const f0 Real)
(assert (= f0 2.7254761875))
(declare-const f1 Real)
(assert (= f1 6.793551630073777e-06))
(declare-const f2 Real)
(assert (= f2 2.725466))
(declare-const f3 Real)
(assert (= f3 2.725489))
(declare-const f4 Real)
(assert (= f4 -1.2500000000414957e-05))
(declare-const A Real)
(declare-const B Real)
(assert (or (and (> f3 2.9980379) (= A 0.0)) (and (<= f3 2.9980379)(= A 0.0))))
(assert (or (and (> f3 2.9980379) (= B 0.0)) (and (<= f3 2.9980379)(= B 0.0))))
(assert (or (not (= A 0.0)) (not (= B 0.0))))
(check-sat)